W=5;
H=3;

MAX_TIME=10;
MAX_TRACKS=6;

TARGET=(3,5);

TRAINS=[(3,1,RIGHT)];
DECOYS=[];

INIT_POS=[
(1,3,STRAIGHT_RL),
(3,1,STRAIGHT_RL),
(3,5,STRAIGHT_RL),
];
TUNNEL_PAIRS=[];

GATES=[];
ACTIVATIONS=[];

DSWITCHES=[];

STATIONS=[
  (1,3,1),
];

SEMAPHORE_SUPPLY=0;
